p edge 15 60
1 2
1 3
1 4
1 5
1 6
1 7
1 8
1 9
2 3
2 4
2 5
2 6
2 10
2 11
2 12
3 4
3 5
3 7
3 10
3 13
3 14
4 5
4 8
4 11
4 13
4 15
5 9
5 12
5 14
5 15
6 7
6 8
6 9
6 10
6 11
6 12
7 8
7 9
7 10
7 13
7 14
8 9
8 11
8 13
8 15
9 12
9 14
9 15
10 11
10 12
10 13
10 14
11 12
11 13
11 15
12 14
12 15
13 14
13 15
14 15
